! Solving for graph ../../../benchmarks/abp/U-662_bus.mtx.rnd
! Target value is set to 110
 ! --------------------------------------------------- CP Optimizer 22.2.0.0 --
 ! Minimization problem - 663 variables, 1568 constraints, 1 phase
 ! TimeLimit            = 1800
 ! LogVerbosity         = Terse
 ! Initial process time : 0.01s (0.01s extraction + 0.00s propagation)
 !  . Log search space  : 6212.8 (before), 6212.8 (after)
 !  . Memory usage      : 886.5 kB (before), 886.5 kB (after)
 ! Using parallel search with 8 workers.
 ! ----------------------------------------------------------------------------
 !          Best Branches  Non-fixed    W       Branch decision
                        0        663                 -
 + New bound is 1
                        0        663    1   F        -
 + New bound is 111
                        2        662    1   F     1 != _int190
 + New bound is 112
 *           331      665  0.15s        1      (gap is 66.16%)
             331    10969        629    2   F   104 != _int605
 + New bound is 222 (gap is 32.93%)
             331     171k        651    2   F   118 != _int650
 + New bound is 229 (gap is 30.82%)
             331     347k        663    4   F   125 != _int605
 + New bound is 236 (gap is 28.70%)
             331     349k        661    1            -
 + New bound is 331 (gap is 0.00%)
 ! ----------------------------------------------------------------------------
 ! Search completed, 1 solution found.
 ! Best objective         : 331 (optimal - effective tol. is 0)
 ! Best bound             : 331
 ! ----------------------------------------------------------------------------
 ! Number of branches     : 2914858
 ! Number of fails        : 1132252
 ! Total memory usage     : 65.0 MB (64.4 MB CP Optimizer + 0.6 MB Concert)
 ! Time spent in solve    : 19.34s (19.34s engine + 0.01s extraction)
 ! Search speed (br. / s) : 150794.5
 ! ----------------------------------------------------------------------------
! --------------------------------------------------------
! Best span = 331
! Labeling: 1 1 111 221 111 111 1 111 111 1 1 111 1 111 1 111 1 1 1 1 221 111 111 111 221 221 1 1 1 111 221 111 1 111 111 1 221 1 1 1 1 111 1 1 111 1 1 111 111 1 221 111 1 111 111 1 111 111 111 111 1 111 111 111 111 111 111 1 1 1 111 1 221 221 1 1 1 1 1 1 111 221 111 111 111 111 1 111 1 221 111 1 111 111 111 111 111 221 111 1 221 111 1 111 111 111 1 1 1 1 1 1 111 111 111 1 111 111 111 111 1 1 1 221 111 111 221 111 1 221 111 221 1 1 111 221 1 111 111 331 1 111 221 111 111 111 111 1 111 111 111 111 221 221 221 1 111 1 111 1 1 1 111 1 1 111 1 1 221 221 221 1 111 1 111 1 1 1 111 1 111 111 1 1 111 111 1 221 1 111 1 111 1 111 111 1 221 111 1 1 1 1 111 1 1 221 111 1 111 1 1 1 1 1 111 1 1 221 1 221 221 221 111 1 1 221 111 1 221 1 1 111 221 1 111 111 111 111 1 221 1 1 111 1 111 111 1 221 1 111 221 221 1 1 1 1 221 111 221 111 111 221 1 1 1 1 1 111 221 1 1 111 1 111 111 111 111 111 1 1 111 1 111 1 111 331 111 111 111 111 221 221 111 1 111 1 111 1 111 111 221 1 1 1 111 1 1 111 1 111 111 1 221 111 111 221 111 111 111 1 1 111 1 111 111 1 1 1 111 1 1 111 221 111 111 111 1 111 1 221 111 111 111 1 111 1 111 111 1 1 111 111 1 111 1 331 111 1 111 1 111 111 1 111 111 1 1 221 111 1 1 1 221 1 1 111 111 221 1 111 221 221 1 221 111 111 111 1 1 1 111 221 1 221 1 111 1 111 1 111 111 1 1 1 1 1 1 111 221 1 1 111 1 1 221 111 111 1 111 221 1 1 111 1 111 1 111 111 1 221 111 1 221 111 1 111 111 1 1 1 1 1 221 111 1 1 1 111 111 1 221 1 1 1 111 1 111 1 111 1 1 221 111 221 1 1 1 111 111 111 1 221 1 1 1 221 1 1 1 111 1 111 111 1 111 111 111 111 111 111 1 1 111 221 1 1 1 111 111 111 1 1 221 1 1 111 111 1 1 1 111 111 1 221 221 1 1 111 111 111 221 221 221 1 1 1 111 111 111 1 111 221 1 1 1 111 1 1 111 1 111 221 1 111 111 1 1 1 1 111 111 1 1 111 111 221 111 1 221 221 1 1 111 111 111 1 111 1 111 1 221 1 111 111 1 1 1 1 1 1 1 111 111 221 221 111 111 111 1 1 1 111 111 111 111 111 1 111 1 1 1 111 1 111 1 111 221 1 1 221 1 111 221 1 111 111 1 111 111 1 111 1 111 1 221 1 111 111 1 1 1 1 111 1 1 111 111 1 1 1 111 1 1 1 221 111 111 221 111 221 1 111 1 1 221 111 221 111 221 221 1 221 
! -------------------------------------------------------- 
